param set_len = 30;
param target = 1036866687;
param values := [0] 103807332 [1] 2701445 [2] 1768633 [3] 12777786 [4] 119762727 [5] 51193412 [6] 59381364 [7] 123835917 [8] 23385528 [9] 108624755 [10] 127451866 [11] 5688937 [12] 78249035 [13] 44386187 [14] 32910205 [15] 82727293 [16] 76547067 [17] 32539693 [18] 82706756 [19] 83187429 [20] 106354974 [21] 44523810 [22] 80449598 [23] 39537002 [24] 37358957 [25] 52202856 [26] 64331617 [27] 108380956 [28] 93003191 [29] 69134480 ;
